p tw 29 41
1 2
1 7
2 3
2 8
3 4
3 9
4 5
4 10
5 11
6 7
7 8
7 12
8 9
8 13
9 10
9 14
10 11
10 15
11 16
12 13
12 18
13 14
13 19
14 15
15 16
15 20
17 18
17 21
18 19
18 22
19 23
20 25
21 22
21 26
22 23
22 27
23 24
23 28
24 25
26 27
27 28
